words_train/words_254_UNSAT.qaiger
aag 46 16 0 1 30
32
16
8
22
20
12
26
30
6
4
18
10
28
2
14
24
92
34 24 17
36 25 16
38 37 35
40 23 14
42 40 39
44 33 31
46 29 27
48 46 44
50 21 12
52 50 48
54 52 42
56 48 17
58 32 28
60 26 24
62 60 58
64 62 30
66 65 57
68 22 15
70 68 51
72 20 13
74 73 69
76 41 35
78 76 75
80 78 71
82 80 67
84 83 55
86 18 10
88 19 11
90 89 87
92 91 85
i0 1 x[7]
i1 2 y[7]
i2 2 y[3]
i3 1 x[2]
i4 1 x[1]
i5 2 y[5]
i6 1 x[4]
i7 1 x[6]
i8 2 y[2]
i9 2 y[1]
i10 1 x[0]
i11 2 y[4]
i12 1 x[5]
i13 2 y[0]
i14 2 y[6]
i15 1 x[3]
o0 bool[0]
c
simplified
  ==
    xor
      >> 4
        2 y
      subtract
        1
        1 x
    unary minus
      1
