words_train/words_254_UNSAT.qaiger.qdimacs
p cnf 46 91
a 9 10 11 12 13 14 15 16 0
e 1 2 3 4 5 6 7 8 17 18 19 20 21 22 23 24 25 26 27 28 29 30 31 32 33 34 35 36 37 38 39 40 41 42 43 44 45 46 0
-12 8 17 0
12 -17 0
-8 -17 0
12 -8 18 0
-12 -18 0
8 -18 0
18 17 19 0
-18 -19 0
-17 -19 0
11 -7 20 0
-11 -20 0
7 -20 0
-20 19 21 0
20 -21 0
-19 -21 0
16 15 22 0
-16 -22 0
-15 -22 0
14 13 23 0
-14 -23 0
-13 -23 0
-23 -22 24 0
23 -24 0
22 -24 0
10 -6 25 0
-10 -25 0
6 -25 0
-25 -24 26 0
25 -26 0
24 -26 0
-26 -21 27 0
26 -27 0
21 -27 0
-24 8 28 0
24 -28 0
-8 -28 0
-16 -14 29 0
16 -29 0
14 -29 0
-13 -12 30 0
13 -30 0
12 -30 0
-30 -29 31 0
30 -31 0
29 -31 0
-31 -15 32 0
31 -32 0
15 -32 0
32 28 33 0
-32 -33 0
-28 -33 0
-11 7 34 0
11 -34 0
-7 -34 0
-34 25 35 0
34 -35 0
-25 -35 0
-10 6 36 0
10 -36 0
-6 -36 0
36 34 37 0
-36 -37 0
-34 -37 0
20 17 38 0
-20 -38 0
-17 -38 0
-38 37 39 0
38 -39 0
-37 -39 0
-39 35 40 0
39 -40 0
-35 -40 0
-40 33 41 0
40 -41 0
-33 -41 0
41 27 42 0
-41 -42 0
-27 -42 0
-9 -5 43 0
9 -43 0
5 -43 0
9 5 44 0
-9 -44 0
-5 -44 0
44 43 45 0
-44 -45 0
-43 -45 0
45 42 46 0
-45 -46 0
-42 -46 0
46 0
